CMD:
./solvers/bin/cadical --plain --no-reduce -t 1600 ./data/cnfs//shift_register_top_w32_d8_e0/shift_register_top_w32_d8_e0.58.cnf

c --- [ banner ] -------------------------------------------------------------
c 
c CaDiCaL SAT Solver
c Copyright (c) 2016-2024
c A. Biere, M. Fleury, N. Froleyks, K. Fazekas, F. Pollitt, T. Faller
c JKU Linz, University of Freiburg, TU Wien
c 
c Version 2.1.3 5296d3d2a9bf48c154ab2acb5e44625776d821bf
c g++ (Gentoo 12.3.1_p20230526 p2) 12.3.1 20230526 -Wall -Wextra -O3 -DNDEBUG
c Sat Aug 9 07:26:21 PDT 2025 Linux cedar2.int.cedar.computecanada.ca 5.14.0-362.24.2.el9_3.x86_64 x86_64
c 
c --- [ limit ] --------------------------------------------------------------
c 
c setting time limit to 1600 seconds real time (due to '-t 1600')
c 
c --- [ parsing input ] ------------------------------------------------------
c 
c reading DIMACS file from './data/cnfs//shift_register_top_w32_d8_e0/shift_register_top_w32_d8_e0.58.cnf'
c opening file to read './data/cnfs//shift_register_top_w32_d8_e0/shift_register_top_w32_d8_e0.58.cnf'
c found 'p cnf 143493 417485' header
c parsed 417485 clauses in 0.06 seconds process time
c 
c --- [ options ] ------------------------------------------------------------
c 
c   --compact=false                (different from default 'true')
c   --decompose=false              (different from default 'true')
c   --deduplicate=false            (different from default 'true')
c   --elim=false                   (different from default 'true')
c   --probe=false                  (different from default 'true')
c   --reduce=false                 (different from default 'true')
c   --subsume=false                (different from default 'true')
c   --ternary=false                (different from default 'true')
c   --transred=false               (different from default 'true')
c   --vivify=false                 (different from default 'true')
c 
c --- [ solving ] ------------------------------------------------------------
c 
c time measured in process time since initialization
c 
c  seconds  reductions  redundant  irredundant
c         MB    restarts       trail       variables
c          level   conflicts       glue          remaining
c 
c *  0.06 68  0 0   0    0    0  0% 0 412016 138031 96%
c {  0.09 71  0 0   0    0    0  0% 0 412016 138031 96%
c i  0.10 71 3829 0   0    9    8 96% 1 412016 137774 96%
c i  0.13 71 2661 0   9  104   72 77% 2 412016 137517 96%
c i  0.13 71 1873 0  12  137   99 61% 2 412016 137458 96%
c }  0.24 71 1291 0  48  276  231 50% 3 412016 137458 96%
c 1  0.24 71 1291 0  48  276  231 50% 3 412016 137458 96%
c 
c --- [ result ] -------------------------------------------------------------
c 
s SATISFIABLE
v 1 -2 -3 -4 -5 -6 -7 -8 -9 -10 -11 -12 -13 -14 -15 -16 -17 -18 -19 -20 -21
v -22 -23 -24 -25 -26 -27 -28 -29 -30 -31 -32 -33 -34 -35 -36 -37 -38 -39 -40
v -41 -42 -43 -44 -45 -46 -47 -48 -49 -50 -51 -52 -53 -54 -55 -56 -57 -58 -59
v -60 -61 -62 -63 -64 -65 66 67 68 69 70 -71 -72 -73 -74 -75 -76 -77 -78 -79
v -80 -81 -82 -83 -84 -85 -86 -87 -88 -89 -90 -91 -92 -93 -94 -95 -96 -97 -98
v -99 -100 -101 -102 -103 -104 -105 -106 -107 -108 -109 -110 -111 -112 -113
v -114 -115 -116 -117 -118 -119 -120 -121 -122 -123 -124 -125 -126 -127 -128
v -129 -130 -131 -132 -133 -134 -135 -136 -137 -138 -139 -140 -141 -142 -143
v -144 -145 -146 -147 -148 -149 -150 -151 -152 -153 -154 -155 -156 -157 -158
v -159 -160 -161 -162 -163 -164 -165 -166 167 168 169 170 171 172 173 174 175
v 176 177 178 179 180 181 182 183 184 185 186 187 188 189 190 191 192 193 194
v 195 196 197 198 -199 -200 -201 -202 -203 -204 -205 -206 -207 -208 -209 -210
v -211 -212 -213 -214 -215 -216 -217 -218 -219 -220 -221 -222 -223 -224 -225
v -226 -227 -228 -229 -230 -231 -232 233 234 235 -236 -237 -238 -239 -240 -241
v -242 -243 -244 -245 -246 -247 -248 -249 -250 -251 -252 -253 -254 -255 -256
v -257 -258 -259 -260 -261 -262 -263 -264 -265 -266 -267 -268 -269 -270 -271
v -272 -273 -274 -275 -276 -277 -278 -279 -280 -281 -282 -283 -284 -285 -286
v -287 -288 -289 -290 -291 -292 -293 -294 -295 -296 -297 -298 -299 -300 -301
v -302 303 -304 -305 -306 -307 -308 -309 -310 -311 -312 -313 -314 -315 -316
v -317 -318 -319 -320 -321 -322 -323 -324 -325 -326 -327 -328 -329 -330 -331
v -332 -333 -334 -335 -336 337 338 -339 -340 -341 -342 -343 -344 -345 -346
v -347 -348 -349 -350 -351 -352 -353 -354 -355 -356 -357 -358 -359 -360 -361
v -362 -363 -364 -365 -366 -367 -368 -369 -370 -371 -372 -373 -374 -375 -376
v 377 -378 -379 -380 381 -382 -383 -384 385 -386 -387 -388 389 -390 -391 -392
v 393 -394 -395 -396 397 -398 -399 -400 401 -402 -403 -404 405 -406 -407 -408
v 409 -410 -411 -412 413 -414 -415 -416 417 -418 -419 -420 421 -422 -423 -424
v 425 -426 -427 -428 429 -430 -431 -432 433 -434 -435 -436 437 -438 -439 -440
v 441 -442 -443 -444 445 -446 -447 -448 449 -450 -451 -452 453 -454 -455 -456
v 457 -458 -459 -460 461 -462 -463 -464 465 -466 -467 -468 469 -470 -471 -472
v 473 -474 -475 -476 477 -478 -479 -480 481 -482 -483 -484 485 -486 -487 -488
v 489 -490 -491 -492 493 -494 -495 -496 497 -498 -499 -500 501 -502 -503 -504
v -505 -506 -507 -508 509 -510 -511 -512 -513 -514 515 -516 517 -518 -519 -520
v -521 -522 523 -524 525 -526 -527 -528 -529 -530 531 -532 533 -534 -535 -536
v -537 -538 539 -540 541 -542 -543 -544 -545 -546 547 -548 549 -550 -551 -552
v -553 -554 555 -556 557 -558 -559 -560 -561 -562 563 -564 565 -566 -567 -568
v -569 -570 571 -572 573 -574 -575 -576 -577 -578 579 -580 581 -582 -583 -584
v -585 -586 587 -588 589 -590 -591 -592 -593 -594 595 -596 597 -598 -599 -600
v -601 -602 603 -604 605 -606 -607 -608 -609 -610 611 -612 613 -614 -615 -616
v -617 -618 619 -620 621 -622 -623 -624 -625 -626 627 -628 629 -630 -631 -632
v -633 -634 635 -636 637 -638 -639 -640 -641 -642 643 -644 645 -646 -647 -648
v -649 -650 651 -652 653 -654 -655 -656 -657 -658 659 -660 661 -662 -663 -664
v -665 -666 667 -668 669 -670 -671 -672 -673 -674 675 -676 677 -678 -679 -680
v -681 -682 683 -684 685 -686 -687 -688 -689 -690 691 -692 693 -694 -695 -696
... skipped 13174 lines ...
v -142946 142947 -142948 -142949 142950 -142951 142952 142953 -142954 142955
v -142956 -142957 142958 -142959 142960 142961 -142962 142963 -142964 -142965
v 142966 -142967 142968 142969 -142970 142971 -142972 -142973 142974 -142975
v 142976 142977 -142978 142979 -142980 -142981 142982 -142983 142984 142985
v -142986 142987 -142988 -142989 142990 -142991 142992 142993 -142994 142995
v -142996 -142997 142998 -142999 143000 143001 -143002 143003 -143004 -143005
v 143006 -143007 143008 143009 -143010 143011 -143012 -143013 143014 -143015
v 143016 143017 -143018 143019 -143020 -143021 143022 -143023 143024 143025
v -143026 143027 -143028 -143029 143030 -143031 143032 143033 -143034 143035
v -143036 -143037 143038 -143039 143040 143041 -143042 143043 -143044 -143045
v 143046 -143047 143048 -143049 143050 -143051 -143052 143053 -143054 -143055
v -143056 -143057 143058 -143059 -143060 -143061 -143062 -143063 -143064
v 143065 143066 -143067 -143068 -143069 143070 -143071 143072 -143073 -143074
v 143075 -143076 143077 -143078 -143079 -143080 -143081 143082 -143083 -143084
v -143085 -143086 -143087 -143088 143089 -143090 -143091 -143092 -143093
v -143094 -143095 143096 -143097 -143098 -143099 143100 -143101 143102 -143103
v -143104 -143105 143106 -143107 143108 -143109 -143110 -143111 -143112 143113
v -143114 143115 -143116 -143117 143118 -143119 143120 143121 -143122 143123
v -143124 -143125 143126 -143127 143128 143129 -143130 143131 -143132 -143133
v 143134 -143135 143136 143137 -143138 143139 -143140 -143141 143142 -143143
v 143144 143145 -143146 143147 -143148 -143149 143150 -143151 143152 143153
v -143154 143155 -143156 -143157 143158 -143159 143160 143161 -143162 143163
v -143164 -143165 143166 -143167 143168 143169 -143170 143171 -143172 -143173
v 143174 -143175 143176 143177 -143178 143179 -143180 -143181 143182 -143183
v 143184 143185 -143186 143187 -143188 -143189 143190 -143191 143192 143193
v -143194 143195 -143196 -143197 143198 -143199 143200 143201 -143202 143203
v -143204 -143205 143206 -143207 143208 143209 -143210 143211 -143212 -143213
v 143214 -143215 143216 143217 -143218 143219 -143220 -143221 143222 -143223
v 143224 143225 -143226 143227 -143228 -143229 143230 -143231 143232 143233
v -143234 143235 -143236 -143237 143238 -143239 143240 143241 -143242 143243
v -143244 -143245 143246 -143247 143248 143249 -143250 143251 -143252 -143253
v 143254 -143255 143256 143257 -143258 143259 -143260 -143261 143262 -143263
v 143264 143265 -143266 143267 -143268 -143269 143270 -143271 143272 143273
v -143274 143275 -143276 -143277 143278 -143279 143280 143281 -143282 143283
v -143284 -143285 143286 -143287 143288 143289 -143290 143291 -143292 -143293
v 143294 -143295 143296 143297 -143298 143299 -143300 -143301 143302 -143303
v 143304 143305 -143306 143307 -143308 -143309 143310 -143311 143312 143313
v -143314 143315 -143316 -143317 143318 -143319 143320 143321 -143322 143323
v -143324 -143325 143326 -143327 143328 143329 -143330 143331 -143332 -143333
v 143334 -143335 143336 143337 -143338 143339 -143340 -143341 143342 -143343
v 143344 143345 -143346 143347 -143348 -143349 143350 -143351 143352 143353
v -143354 143355 -143356 -143357 143358 -143359 143360 143361 -143362 143363
v -143364 143365 -143366 -143367 143368 -143369 143370 -143371 143372 -143373
v 143374 -143375 143376 -143377 143378 -143379 143380 -143381 143382 -143383
v 143384 -143385 143386 -143387 143388 -143389 143390 -143391 143392 -143393
v 143394 -143395 143396 -143397 143398 -143399 143400 -143401 143402 -143403
v 143404 -143405 143406 -143407 143408 -143409 143410 -143411 143412 -143413
v 143414 -143415 143416 -143417 143418 -143419 143420 -143421 143422 -143423
v 143424 -143425 143426 -143427 143428 -143429 143430 -143431 143432 -143433
v 143434 -143435 143436 -143437 143438 -143439 143440 -143441 143442 -143443
v 143444 -143445 143446 -143447 143448 -143449 143450 -143451 143452 -143453
v 143454 -143455 143456 -143457 143458 -143459 143460 -143461 143462 -143463
v 143464 -143465 143466 -143467 143468 -143469 143470 -143471 143472 -143473
v 143474 -143475 143476 -143477 143478 -143479 143480 -143481 143482 -143483
v 143484 -143485 143486 -143487 143488 -143489 143490 -143491 143492 -143493 0
c 
c --- [ run-time profiling ] -------------------------------------------------
c 
c process time taken by individual solving procedures
c (percentage relative to process time for solving)
c 
c         0.18   99.95% search
c         0.15   81.21% unstable
c         0.06   32.79% parse
c         0.03   18.70% lucky
c         0.00    0.00% simplify
c   =================================
c         0.18   73.29% solve
c 
c last line shows process time for solving
c (percentage relative to total process time)
c 
c --- [ statistics ] ---------------------------------------------------------
c 
c chronological:                86        31.16 %  of conflicts
c conflicts:                   276      1515.21    per second
c decisions:                 59626    327340.20    per second
c fixed:                      6034         4.21 %  of all variables
c learned:                     240        86.96 %  per conflict
c learned_lits:               1861       100.00 %  learned literals
c minimized:                     0         0.00 %  learned literals
c shrunken:                    152         8.17 %  learned literals
c minishrunken:                176         9.46 %  learned literals
c otfs:                          1         0.36 %  of conflict
c propagations:            3131489        17.19 M  per second
c restarts:                     48         5.75    interval
c subsumed:                      6         0.00 %  of all clauses
c strengthened:                  1         0.00 %  of all clauses
c 
c seconds are measured in process time for solving
c 
c --- [ resources ] ----------------------------------------------------------
c 
c total process time since initialization:         0.25    seconds
c total real time since initialization:            0.25    seconds
c maximum resident set size of process:           68.98    MB
c 
c --- [ shutting down ] ------------------------------------------------------
c 
c exit 10
